
******************************************************************************
This program contains Ipopt, a library for large-scale nonlinear optimization.
 Ipopt is released as open source code under the Eclipse Public License (EPL).
         For more information visit http://projects.coin-or.org/Ipopt
******************************************************************************

This is Ipopt version 3.12.6, running with linear solver ma57.

Number of nonzeros in equality constraint Jacobian...:        0
Number of nonzeros in inequality constraint Jacobian.:       17
Number of nonzeros in Lagrangian Hessian.............:       16

Total number of variables............................:        8
                     variables with only lower bounds:        0
                variables with lower and upper bounds:        8
                     variables with only upper bounds:        0
Total number of equality constraints.................:        0
Total number of inequality constraints...............:        5
        inequality constraints with only lower bounds:        0
   inequality constraints with lower and upper bounds:        1
        inequality constraints with only upper bounds:        4

iter    objective    inf_pr   inf_du lg(mu)  ||d||  lg(rg) alpha_du alpha_pr  ls
   0  3.6573657e+00 4.17e-01 9.49e-01  -1.0 0.00e+00    -  0.00e+00 0.00e+00   0
   1  3.9606179e+00 1.64e-01 2.82e+00  -1.0 6.83e-01    -  7.09e-01 1.00e+00h  1
   2  3.9141358e+00 4.99e-01 9.07e-01  -1.0 1.46e+00    -  8.26e-01 1.00e+00f  1
   3  3.8520670e+00 3.43e-01 6.10e-01  -1.7 4.37e-01    -  9.26e-01 6.33e-01h  1
   4  3.9699749e+00 5.41e-02 3.60e-02  -1.7 1.15e+00    -  1.00e+00 1.00e+00h  1
   5  3.9621568e+00 0.00e+00 8.06e-03  -2.5 3.72e-01    -  1.00e+00 1.00e+00h  1
   6  3.9518332e+00 0.00e+00 1.00e-04  -3.8 2.92e-02    -  1.00e+00 1.00e+00h  1
   7  3.9511709e+00 0.00e+00 2.45e-07  -5.7 2.15e-03    -  1.00e+00 1.00e+00h  1
   8  3.9511633e+00 0.00e+00 5.02e-11  -8.6 3.04e-05    -  1.00e+00 1.00e+00h  1

Number of Iterations....: 8

                                   (scaled)                 (unscaled)
Objective...............:   3.9511633467506817e+00    3.9511633467506817e+00
Dual infeasibility......:   5.0161099024086212e-11    5.0161099024086212e-11
Constraint violation....:   0.0000000000000000e+00    0.0000000000000000e+00
Complementarity.........:   2.5402757967056553e-09    2.5402757967056553e-09
Overall NLP error.......:   2.5402757967056553e-09    2.5402757967056553e-09


Number of objective function evaluations             = 9
Number of objective gradient evaluations             = 9
Number of equality constraint evaluations            = 0
Number of inequality constraint evaluations          = 9
Number of equality constraint Jacobian evaluations   = 0
Number of inequality constraint Jacobian evaluations = 9
Number of Lagrangian Hessian evaluations             = 8
Total CPU secs in IPOPT (w/o function evaluations)   =      0.007
Total CPU secs in NLP function evaluations           =      0.000

EXIT: Optimal Solution Found.
Note: The following floating-point exceptions are signalling: IEEE_INVALID_FLAG IEEE_DIVIDE_BY_ZERO

************************ CUTEst statistics ************************


 Package used            :  IPOPT
 Problem                 :  HS104     
 # variables             =               8
 # constraints           =               5
 # objective functions   =        0.1900000E+02
 # objective gradients   =        0.1000000E+02
 # objective Hessians    =        0.9000000E+01
 # Hessian-vector prdct  =        0.0000000E+00
 # constraints functions =        0.2000000E+02
 # constraints gradients =        0.1100000E+02
 # constraints Hessians  =        0.9000000E+01
 Exit code               =               0
 Final f                 =   0.3951163E+01
 Set up time             =            0.00 seconds
 Solve time              =            0.02 seconds


******************************************************************

System Time =       0.0040000002 s.
